# Solution for model GasLib-40
# Objective value = 55.5251630742448
loadshed[innode_1] 0
loadshed[innode_2] 0
loadshed[innode_3] 0
loadshed[innode_4] 0
loadshed[innode_5] 0
loadshed[innode_6] 0
loadshed[innode_7] 0
loadshed[innode_8] 0
loadshed[source_1] -8.6059797050352271e-02
loadshed[source_2] 7.2650707564316908e-02
loadshed[source_3] 3.6463349021919544e-01
loadshed[sink_1] 4.4960734691236925e-01
loadshed[sink_2] 0
loadshed[sink_3] 0
loadshed[sink_4] 0
loadshed[sink_5] 0
loadshed[sink_6] 0
loadshed[sink_7] 0
loadshed[sink_8] 0
loadshed[sink_9] 7.3454356709072410e-02
loadshed[sink_10] 0
loadshed[sink_11] 0
loadshed[sink_12] 1
loadshed[sink_13] 0
loadshed[sink_14] 0
loadshed[sink_15] 0
loadshed[sink_16] 0
loadshed[sink_17] 0
loadshed[sink_18] 0
loadshed[sink_19] 0
loadshed[sink_20] 0
loadshed[sink_21] 1
loadshed[sink_22] 0
loadshed[sink_23] 0
loadshed[sink_24] 8.7210750346613863e-01
loadshed[sink_25] 0
loadshed[sink_26] 0
loadshed[sink_27] 0
loadshed[sink_28] 0
loadshed[sink_29] 0
flow[source_1,sink_3] 1.7169549499896715e+02
flow[innode_1,sink_16] 1.6354166666666970e+01
flow[innode_6,sink_13] 1.4033898644722997e+01
flow[sink_13,sink_14] -2.3202680219436704e+00
flow[sink_14,sink_10] -1.8674434688610518e+01
flow[sink_25,sink_26] 1.1553936122269549e+02
flow[sink_26,sink_9] 0
flow[sink_9,sink_18] -1.5152881874653714e+01
flow[sink_26,sink_4] 9.9185194556028819e+01
flow[sink_4,sink_20] -4.1539642369726153e+01
flow[sink_18,sink_6] -3.1507048541320380e+01
flow[sink_25,innode_8] -1.3898716166563077e+02
flow[sink_6,sink_7] -7.3216595055357629e+01
flow[sink_6,sink_22] 2.5355379847370628e+01
flow[sink_7,sink_24] 2.0915752037308564e+00
flow[sink_22,sink_1] 9.0012131807039619e+00
flow[sink_24,sink_21] 0
flow[sink_21,sink_12] 0
flow[sink_7,sink_5] -9.1662336925755142e+01
flow[sink_5,sink_17] -1.0801650359242181e+02
flow[sink_17,sink_4] -1.2437067025908848e+02
flow[sink_17,sink_8] 0
flow[sink_3,sink_23] 16.3541666666697
flow[sink_8,sink_20] -1.6354166666668334e+01
flow[sink_25,sink_20] 7.4247975703061257e+01
flow[sink_25,sink_15] -8.1188240571514910e+01
flow[sink_15,sink_29] -5.5336465911320921e+01
flow[sink_29,sink_28] 1.6354166666667879e+01
flow[sink_29,sink_2] 5.8560107993527339e+01
flow[sink_2,sink_15] 4.2205941326860668e+01
flow[sink_29,innode_7] -1.4660490723818282e+02
flow[innode_4,sink_19] 3.8158514835238456e+01
flow[sink_19,innode_3] 0
flow[innode_4,innode_5] 6.2286753186706093e+01
flow[sink_27,innode_5] -6.2286753186706093e+01
flow[sink_27,sink_19] 4.5932586520039422e+01
flow[sink_10,sink_11] 3.2708333333333641e+01
flow[sink_10,innode_2] -6.7736934688610674e+01
flow[sink_10,innode_3] 0
flow[innode_6,sink_25] -1.4033898644722997e+01
flow[sink_11,innode_1] 1.6354166666666970e+01
flow[sink_19,innode_2] 6.7736934688610674e+01
flow[source_3,innode_4] 1.0044526802194454e+02
flow[source_2,innode_7] 1.4660490723818282e+02
flow[sink_3,innode_8] 1.3898716166563077e+02
pressure[innode_1] 7.5735473266975092e+01
pressure[innode_2] 7.9467351335574534e+01
pressure[innode_3] 7.9467351335574534e+01
pressure[innode_4] 81.01325
pressure[innode_5] 8.0970405886767509e+01
pressure[innode_6] 7.5077114256117738e+01
pressure[innode_7] 81.01325
pressure[innode_8] 8.0439337550274914e+01
pressure[source_1] 81.01325
pressure[source_2] 81.01325
pressure[source_3] 81.01325
pressure[sink_1] 1.0132500000000002e+00
pressure[sink_2] 7.5608749430876458e+01
pressure[sink_3] 8.0439337550274914e+01
pressure[sink_4] 5.4329082559110638e+01
pressure[sink_5] 4.1529596889494577e+01
pressure[sink_6] 2.4028584344449904e+00
pressure[sink_7] 3.4079477626065642e+00
pressure[sink_8] 5.6236968448560937e+01
pressure[sink_9] 1.01325
pressure[sink_10] 7.5887174574578637e+01
pressure[sink_11] 7.5735473266975092e+01
pressure[sink_12] 1.01325
pressure[sink_13] 7.4999747718171719e+01
pressure[sink_14] 7.5003900035440111e+01
pressure[sink_15] 75.4709563344839
pressure[sink_16] 7.4713823432157412e+01
pressure[sink_17] 4.9576045641416719e+01
pressure[sink_18] 1.5615264295801849e+00
pressure[sink_19] 7.9467351335574534e+01
pressure[sink_20] 5.7376623872149224e+01
pressure[sink_21] 1.01325
pressure[sink_22] 1.5987407205335171e+00
pressure[sink_23] 8.0274619538615127e+01
pressure[sink_24] 1.01325
pressure[sink_25] 7.5077114256117738e+01
pressure[sink_26] 6.6939744897707314e+01
pressure[sink_27] 8.0453540928862424e+01
pressure[sink_28] 76.7968607818257
pressure[sink_29] 7.7092143055442875e+01
interdiction[source_1,sink_3] 0
interdiction[innode_1,sink_16] 0
interdiction[innode_6,sink_13] 0
interdiction[sink_13,sink_14] 0
interdiction[sink_14,sink_10] 0
interdiction[sink_25,sink_26] 0
interdiction[sink_26,sink_9] 1
interdiction[sink_9,sink_18] 0
interdiction[sink_26,sink_4] 0
interdiction[sink_4,sink_20] 0
interdiction[sink_18,sink_6] 0
interdiction[sink_25,innode_8] 0
interdiction[sink_6,sink_7] 0
interdiction[sink_6,sink_22] 0
interdiction[sink_7,sink_24] 0
interdiction[sink_22,sink_1] 0
interdiction[sink_24,sink_21] 0
interdiction[sink_21,sink_12] 0
interdiction[sink_7,sink_5] 0
interdiction[sink_5,sink_17] 0
interdiction[sink_17,sink_4] 0
interdiction[sink_17,sink_8] 1
interdiction[sink_3,sink_23] 0
interdiction[sink_8,sink_20] 0
interdiction[sink_25,sink_20] 0
interdiction[sink_25,sink_15] 0
interdiction[sink_15,sink_29] 0
interdiction[sink_29,sink_28] 0
interdiction[sink_29,sink_2] 0
interdiction[sink_2,sink_15] 0
interdiction[sink_29,innode_7] 0
interdiction[innode_4,sink_19] 0
interdiction[sink_19,innode_3] 0
interdiction[innode_4,innode_5] 0
interdiction[sink_27,innode_5] 0
interdiction[sink_27,sink_19] 0
interdiction[sink_10,sink_11] 0
interdiction[sink_10,innode_2] 0
interdiction[sink_10,innode_3] 1
interdiction[innode_6,sink_25] 0
interdiction[sink_11,innode_1] 0
interdiction[sink_19,innode_2] 0
interdiction[source_3,innode_4] 0
interdiction[source_2,innode_7] 0
interdiction[sink_3,innode_8] 0
WCcheckFlow[source_1,sink_3] 39
WCcheckFlow[innode_1,sink_16] 1
WCcheckFlow[innode_6,sink_13] 13
WCcheckFlow[sink_13,sink_14] 12
WCcheckFlow[sink_14,sink_10] 11
WCcheckFlow[sink_25,sink_26] 15
WCcheckFlow[sink_26,sink_9] 0
WCcheckFlow[sink_9,sink_18] -1
WCcheckFlow[sink_26,sink_4] 14
WCcheckFlow[sink_4,sink_20] 2
WCcheckFlow[sink_18,sink_6] -2
WCcheckFlow[sink_25,innode_8] -36
WCcheckFlow[sink_6,sink_7] -5
WCcheckFlow[sink_6,sink_22] 2
WCcheckFlow[sink_7,sink_24] 3
WCcheckFlow[sink_22,sink_1] 1
WCcheckFlow[sink_24,sink_21] 2
WCcheckFlow[sink_21,sink_12] 1
WCcheckFlow[sink_7,sink_5] -9
WCcheckFlow[sink_5,sink_17] -10
WCcheckFlow[sink_17,sink_4] -11
WCcheckFlow[sink_17,sink_8] 0
WCcheckFlow[sink_3,sink_23] 1
WCcheckFlow[sink_8,sink_20] -1
WCcheckFlow[sink_25,sink_20] 0
WCcheckFlow[sink_25,sink_15] 6
WCcheckFlow[sink_15,sink_29] 5
WCcheckFlow[sink_29,sink_28] 1
WCcheckFlow[sink_29,sink_2] 1
WCcheckFlow[sink_2,sink_15] 0
WCcheckFlow[sink_29,innode_7] 2
WCcheckFlow[innode_4,sink_19] -4
WCcheckFlow[sink_19,innode_3] 1
WCcheckFlow[innode_4,innode_5] 2
WCcheckFlow[sink_27,innode_5] -1
WCcheckFlow[sink_27,sink_19] 0
WCcheckFlow[sink_10,sink_11] 3
WCcheckFlow[sink_10,innode_2] 7
WCcheckFlow[sink_10,innode_3] 0
WCcheckFlow[innode_6,sink_25] -14
WCcheckFlow[sink_11,innode_1] 2
WCcheckFlow[sink_19,innode_2] -6
WCcheckFlow[source_3,innode_4] -1
WCcheckFlow[source_2,innode_7] -1
WCcheckFlow[sink_3,innode_8] 37
